c colouring generated by benchmark framework
p edge 1000 245000
v 1 104
v 2 60
v 3 15
v 4 45
v 5 31
v 6 105
v 7 69
v 8 108
v 9 117
v 10 83
v 11 47
v 12 20
v 13 61
v 14 11
v 15 72
v 16 93
v 17 33
v 18 43
v 19 82
v 20 26
v 21 61
v 22 62
v 23 27
v 24 93
v 25 86
v 26 59
v 27 0
v 28 3
v 29 9
v 30 42
v 31 13
v 32 17
v 33 73
v 34 44
v 35 81
v 36 42
v 37 62
v 38 23
v 39 63
v 40 60
v 41 48
v 42 18
v 43 31
v 44 75
v 45 17
v 46 10
v 47 17
v 48 105
v 49 74
v 50 69
v 51 99
v 52 49
v 53 16
v 54 23
v 55 18
v 56 21
v 57 124
v 58 60
v 59 47
v 60 90
v 61 9
v 62 28
v 63 43
v 64 72
v 65 114
v 66 22
v 67 34
v 68 4
v 69 80
v 70 93
v 71 123
v 72 3
v 73 7
v 74 117
v 75 33
v 76 51
v 77 9
v 78 22
v 79 87
v 80 39
v 81 46
v 82 13
v 83 1
v 84 90
v 85 121
v 86 81
v 87 0
v 88 36
v 89 50
v 90 58
v 91 10
v 92 6
v 93 51
v 94 80
v 95 1
v 96 22
v 97 12
v 98 59
v 99 56
v 100 94
v 101 69
v 102 55
v 103 45
v 104 75
v 105 4
v 106 4
v 107 4
v 108 134
v 109 61
v 110 42
v 111 113
v 112 12
v 113 72
v 114 8
v 115 73
v 116 52
v 117 78
v 118 89
v 119 103
v 120 68
v 121 124
v 122 13
v 123 29
v 124 111
v 125 51
v 126 65
v 127 136
v 128 28
v 129 112
v 130 9
v 131 15
v 132 92
v 133 65
v 134 80
v 135 73
v 136 91
v 137 7
v 138 97
v 139 38
v 140 27
v 141 5
v 142 70
v 143 68
v 144 32
v 145 57
v 146 82
v 147 18
v 148 113
v 149 64
v 150 117
v 151 73
v 152 92
v 153 77
v 154 69
v 155 87
v 156 96
v 157 36
v 158 11
v 159 130
v 160 109
v 161 116
v 162 93
v 163 115
v 164 49
v 165 38
v 166 41
v 167 133
v 168 98
v 169 68
v 170 85
v 171 44
v 172 53
v 173 16
v 174 56
v 175 79
v 176 103
v 177 41
v 178 24
v 179 61
v 180 125
v 181 123
v 182 53
v 183 107
v 184 97
v 185 24
v 186 2
v 187 119
v 188 15
v 189 55
v 190 25
v 191 14
v 192 8
v 193 48
v 194 32
v 195 102
v 196 63
v 197 50
v 198 37
v 199 76
v 200 15
v 201 8
v 202 128
v 203 88
v 204 44
v 205 94
v 206 65
v 207 36
v 208 17
v 209 39
v 210 53
v 211 105
v 212 18
v 213 58
v 214 102
v 215 89
v 216 17
v 217 14
v 218 71
v 219 21
v 220 119
v 221 92
v 222 109
v 223 3
v 224 34
v 225 75
v 226 114
v 227 22
v 228 0
v 229 54
v 230 6
v 231 126
v 232 118
v 233 82
v 234 39
v 235 63
v 236 45
v 237 6
v 238 2
v 239 71
v 240 112
v 241 65
v 242 71
v 243 64
v 244 45
v 245 10
v 246 26
v 247 62
v 248 8
v 249 121
v 250 56
v 251 82
v 252 119
v 253 31
v 254 90
v 255 129
v 256 59
v 257 108
v 258 1
v 259 72
v 260 22
v 261 53
v 262 107
v 263 39
v 264 61
v 265 104
v 266 98
v 267 99
v 268 71
v 269 58
v 270 47
v 271 58
v 272 50
v 273 62
v 274 9
v 275 33
v 276 33
v 277 106
v 278 4
v 279 36
v 280 67
v 281 32
v 282 113
v 283 36
v 284 48
v 285 37
v 286 25
v 287 135
v 288 56
v 289 105
v 290 52
v 291 32
v 292 33
v 293 34
v 294 122
v 295 63
v 296 69
v 297 72
v 298 60
v 299 96
v 300 113
v 301 34
v 302 16
v 303 21
v 304 19
v 305 96
v 306 5
v 307 1
v 308 37
v 309 4
v 310 41
v 311 110
v 312 65
v 313 26
v 314 114
v 315 40
v 316 69
v 317 27
v 318 20
v 319 44
v 320 132
v 321 59
v 322 81
v 323 85
v 324 52
v 325 30
v 326 77
v 327 97
v 328 100
v 329 31
v 330 2
v 331 56
v 332 60
v 333 121
v 334 101
v 335 3
v 336 45
v 337 22
v 338 34
v 339 127
v 340 67
v 341 106
v 342 47
v 343 44
v 344 98
v 345 13
v 346 87
v 347 65
v 348 31
v 349 76
v 350 103
v 351 55
v 352 117
v 353 37
v 354 4
v 355 19
v 356 66
v 357 48
v 358 5
v 359 60
v 360 64
v 361 73
v 362 86
v 363 71
v 364 14
v 365 8
v 366 21
v 367 7
v 368 122
v 369 29
v 370 16
v 371 70
v 372 110
v 373 12
v 374 1
v 375 75
v 376 78
v 377 0
v 378 19
v 379 131
v 380 23
v 381 50
v 382 67
v 383 38
v 384 51
v 385 22
v 386 54
v 387 18
v 388 48
v 389 125
v 390 43
v 391 17
v 392 41
v 393 103
v 394 85
v 395 76
v 396 88
v 397 99
v 398 76
v 399 62
v 400 50
v 401 110
v 402 64
v 403 122
v 404 26
v 405 40
v 406 59
v 407 47
v 408 14
v 409 49
v 410 116
v 411 83
v 412 41
v 413 87
v 414 108
v 415 29
v 416 83
v 417 97
v 418 81
v 419 54
v 420 12
v 421 34
v 422 55
v 423 11
v 424 45
v 425 34
v 426 67
v 427 2
v 428 42
v 429 80
v 430 14
v 431 44
v 432 14
v 433 23
v 434 87
v 435 96
v 436 84
v 437 66
v 438 54
v 439 40
v 440 84
v 441 38
v 442 20
v 443 124
v 444 86
v 445 80
v 446 24
v 447 50
v 448 84
v 449 86
v 450 42
v 451 29
v 452 13
v 453 109
v 454 40
v 455 74
v 456 36
v 457 114
v 458 18
v 459 88
v 460 67
v 461 133
v 462 56
v 463 6
v 464 95
v 465 30
v 466 11
v 467 78
v 468 75
v 469 112
v 470 21
v 471 63
v 472 84
v 473 56
v 474 75
v 475 12
v 476 98
v 477 105
v 478 80
v 479 55
v 480 111
v 481 82
v 482 127
v 483 23
v 484 36
v 485 52
v 486 85
v 487 27
v 488 22
v 489 68
v 490 80
v 491 79
v 492 79
v 493 39
v 494 28
v 495 61
v 496 1
v 497 46
v 498 23
v 499 73
v 500 95
v 501 108
v 502 111
v 503 78
v 504 76
v 505 18
v 506 68
v 507 20
v 508 43
v 509 49
v 510 76
v 511 9
v 512 105
v 513 78
v 514 53
v 515 7
v 516 123
v 517 79
v 518 48
v 519 30
v 520 81
v 521 70
v 522 9
v 523 24
v 524 100
v 525 66
v 526 0
v 527 84
v 528 9
v 529 67
v 530 109
v 531 25
v 532 118
v 533 39
v 534 79
v 535 19
v 536 6
v 537 51
v 538 40
v 539 31
v 540 19
v 541 54
v 542 116
v 543 20
v 544 5
v 545 55
v 546 93
v 547 0
v 548 10
v 549 95
v 550 3
v 551 121
v 552 115
v 553 90
v 554 18
v 555 2
v 556 23
v 557 52
v 558 97
v 559 111
v 560 92
v 561 108
v 562 110
v 563 123
v 564 111
v 565 60
v 566 81
v 567 7
v 568 129
v 569 90
v 570 92
v 571 46
v 572 95
v 573 115
v 574 40
v 575 67
v 576 11
v 577 71
v 578 91
v 579 11
v 580 81
v 581 112
v 582 32
v 583 58
v 584 62
v 585 78
v 586 74
v 587 26
v 588 43
v 589 42
v 590 126
v 591 2
v 592 94
v 593 16
v 594 48
v 595 28
v 596 24
v 597 15
v 598 91
v 599 99
v 600 33
v 601 30
v 602 112
v 603 22
v 604 86
v 605 17
v 606 39
v 607 24
v 608 11
v 609 93
v 610 28
v 611 41
v 612 102
v 613 46
v 614 103
v 615 108
v 616 59
v 617 83
v 618 35
v 619 2
v 620 77
v 621 12
v 622 70
v 623 107
v 624 16
v 625 131
v 626 110
v 627 118
v 628 106
v 629 12
v 630 9
v 631 69
v 632 31
v 633 37
v 634 42
v 635 5
v 636 51
v 637 77
v 638 82
v 639 26
v 640 63
v 641 20
v 642 79
v 643 74
v 644 16
v 645 3
v 646 24
v 647 16
v 648 72
v 649 36
v 650 11
v 651 125
v 652 16
v 653 65
v 654 78
v 655 36
v 656 83
v 657 26
v 658 45
v 659 35
v 660 89
v 661 25
v 662 104
v 663 48
v 664 86
v 665 57
v 666 21
v 667 59
v 668 128
v 669 54
v 670 110
v 671 70
v 672 20
v 673 71
v 674 94
v 675 50
v 676 12
v 677 81
v 678 49
v 679 46
v 680 95
v 681 101
v 682 64
v 683 58
v 684 0
v 685 123
v 686 30
v 687 95
v 688 25
v 689 74
v 690 62
v 691 1
v 692 29
v 693 101
v 694 38
v 695 61
v 696 6
v 697 92
v 698 66
v 699 88
v 700 117
v 701 36
v 702 44
v 703 136
v 704 31
v 705 14
v 706 3
v 707 17
v 708 96
v 709 43
v 710 29
v 711 23
v 712 53
v 713 90
v 714 35
v 715 35
v 716 41
v 717 21
v 718 32
v 719 91
v 720 127
v 721 95
v 722 13
v 723 128
v 724 89
v 725 93
v 726 39
v 727 114
v 728 6
v 729 45
v 730 14
v 731 120
v 732 94
v 733 62
v 734 86
v 735 35
v 736 42
v 737 66
v 738 58
v 739 29
v 740 34
v 741 25
v 742 129
v 743 52
v 744 41
v 745 102
v 746 136
v 747 46
v 748 46
v 749 28
v 750 0
v 751 135
v 752 9
v 753 116
v 754 90
v 755 72
v 756 125
v 757 109
v 758 106
v 759 8
v 760 8
v 761 43
v 762 98
v 763 6
v 764 60
v 765 7
v 766 106
v 767 59
v 768 0
v 769 99
v 770 83
v 771 44
v 772 38
v 773 101
v 774 1
v 775 100
v 776 32
v 777 114
v 778 88
v 779 76
v 780 7
v 781 31
v 782 25
v 783 54
v 784 1
v 785 51
v 786 27
v 787 24
v 788 7
v 789 87
v 790 23
v 791 19
v 792 30
v 793 26
v 794 49
v 795 55
v 796 65
v 797 82
v 798 34
v 799 113
v 800 57
v 801 53
v 802 85
v 803 104
v 804 2
v 805 19
v 806 32
v 807 103
v 808 50
v 809 10
v 810 30
v 811 37
v 812 13
v 813 52
v 814 92
v 815 15
v 816 64
v 817 5
v 818 132
v 819 66
v 820 77
v 821 29
v 822 65
v 823 135
v 824 4
v 825 100
v 826 113
v 827 100
v 828 3
v 829 104
v 830 74
v 831 134
v 832 89
v 833 98
v 834 47
v 835 22
v 836 27
v 837 27
v 838 71
v 839 90
v 840 91
v 841 46
v 842 120
v 843 40
v 844 43
v 845 16
v 846 70
v 847 74
v 848 91
v 849 59
v 850 33
v 851 85
v 852 10
v 853 75
v 854 86
v 855 105
v 856 15
v 857 41
v 858 75
v 859 129
v 860 77
v 861 118
v 862 77
v 863 4
v 864 37
v 865 118
v 866 94
v 867 2
v 868 116
v 869 4
v 870 57
v 871 57
v 872 3
v 873 79
v 874 77
v 875 73
v 876 131
v 877 19
v 878 99
v 879 35
v 880 86
v 881 17
v 882 44
v 883 4
v 884 108
v 885 122
v 886 131
v 887 78
v 888 18
v 889 10
v 890 132
v 891 107
v 892 8
v 893 66
v 894 19
v 895 47
v 896 120
v 897 127
v 898 63
v 899 105
v 900 96
v 901 88
v 902 28
v 903 102
v 904 88
v 905 28
v 906 49
v 907 28
v 908 21
v 909 15
v 910 59
v 911 57
v 912 23
v 913 40
v 914 54
v 915 108
v 916 22
v 917 15
v 918 46
v 919 122
v 920 52
v 921 124
v 922 111
v 923 107
v 924 57
v 925 104
v 926 61
v 927 115
v 928 9
v 929 89
v 930 41
v 931 67
v 932 63
v 933 10
v 934 49
v 935 39
v 936 21
v 937 68
v 938 111
v 939 35
v 940 85
v 941 87
v 942 5
v 943 50
v 944 101
v 945 37
v 946 71
v 947 119
v 948 52
v 949 20
v 950 64
v 951 45
v 952 119
v 953 25
v 954 66
v 955 112
v 956 79
v 957 76
v 958 104
v 959 84
v 960 14
v 961 110
v 962 35
v 963 13
v 964 40
v 965 33
v 966 5
v 967 47
v 968 88
v 969 6
v 970 5
v 971 96
v 972 36
v 973 57
v 974 38
v 975 56
v 976 112
v 977 15
v 978 83
v 979 130
v 980 32
v 981 54
v 982 97
v 983 68
v 984 113
v 985 26
v 986 70
v 987 64
v 988 37
v 989 107
v 990 25
v 991 115
v 992 101
v 993 38
v 994 43
v 995 8
v 996 126
v 997 68
v 998 72
v 999 69
v 1000 30
